DIMENSION: 130
82
101
123
111
119
84
36
32
113
25
48
63
68
98
110
89
94
29
15
24
116
95
79
38
92
73
99
74
75
52
9
57
56
65
87
12
81
103
77
100
19
27
31
17
34
43
104
107
127
1
41
39
71
130
50
2
54
35
118
80
46
20
93
22
37
47
40
23
122
55
44
42
51
60
120
53
49
58
106
4
72
91
6
102
10
14
96
67
13
33
21
18
8
108
114
3
83
30
59
126
121
78
90
125
85
66
28
115
117
112
105
62
128
16
45
5
11
76
109
61
129
124
26
97
70
7
64
69
88
